
  32    4
  10   10   10   10

   0   0   0   0   0   3 2 8 31 
   7   1   1   1   0   2 30 3 
   5   5   0   3   1   2 28 4 
   7   2   5   0   2   1 5 
   5   0   2   3   4   3 27 26 6 
   2   5   3   0   5   1 7 
  10   4   9   6   0   4 25 24 23 9 
   9   3   3   7   0   6 29 26 24 23 22 12 
   4   0   5   4   4   1 10 
   4   3   3   0   3   2 22 11 
   9   4   0   4   4   1 12 
   2   4   6   0   2   1 13 
   3   4   5   6   0   2 21 14 
   5   4   9   0   3   4 20 19 18 15 
   5   2   4   4   0   1 16 
   2   7   2   0   8   1 17 
   4   0   3   4   2   1 32
   4   0   4   4   6   1 32
   3   0   4   6   5   1 32
   9   5   1   0   4   1 32
   1   0   4   3   7   1 32
  10   5   2   2   0   1 32
   4   2   0   3   8   1 32
   6   0   1   5   2   1 32
   9   3   0   4   5   1 32
   5   0   3   4   3   1 32
   9   7   3   0   2   1 32
   6   5   6   6   0   1 32
   4   5   8   0   4   1 32
  10   0   4   2   3   1 32
   1   0   4   3   5   1 32
   0   0   0   0   0   0 
